# Fcc Cu oriented X=[100], Y=[010], Z=[001].
1.000000
     10.86000000        0.00000000        0.00000000
      0.00000000       10.86000000        0.00000000
      0.00000000        0.00000000       30.86000000
 Cu
   108
Cartesian
      0.00000000        0.00000000        0.00000000
      1.81000000        1.81000000        0.00000000
      0.00000000        1.81000000        1.81000000
      1.81000000        0.00000000        1.81000000
      3.62000000        0.00000000        0.00000000
      5.43000000        1.81000000        0.00000000
      3.62000000        1.81000000        1.81000000
      5.43000000        0.00000000        1.81000000
      7.24000000        0.00000000        0.00000000
      9.05000000        1.81000000        0.00000000
      7.24000000        1.81000000        1.81000000
      9.05000000        0.00000000        1.81000000
      0.00000000        3.62000000        0.00000000
      1.81000000        5.43000000        0.00000000
      0.00000000        5.43000000        1.81000000
      1.81000000        3.62000000        1.81000000
      3.62000000        3.62000000        0.00000000
      5.43000000        5.43000000        0.00000000
      3.62000000        5.43000000        1.81000000
      5.43000000        3.62000000        1.81000000
      7.24000000        3.62000000        0.00000000
      9.05000000        5.43000000        0.00000000
      7.24000000        5.43000000        1.81000000
      9.05000000        3.62000000        1.81000000
      0.00000000        7.24000000        0.00000000
      1.81000000        9.05000000        0.00000000
      0.00000000        9.05000000        1.81000000
      1.81000000        7.24000000        1.81000000
      3.62000000        7.24000000        0.00000000
      5.43000000        9.05000000        0.00000000
      3.62000000        9.05000000        1.81000000
      5.43000000        7.24000000        1.81000000
      7.24000000        7.24000000        0.00000000
      9.05000000        9.05000000        0.00000000
      7.24000000        9.05000000        1.81000000
      9.05000000        7.24000000        1.81000000
      0.00000000        0.00000000        3.62000000
      1.81000000        1.81000000        3.62000000
      0.00000000        1.81000000        5.43000000
      1.81000000        0.00000000        5.43000000
      3.62000000        0.00000000        3.62000000
      5.43000000        1.81000000        3.62000000
      3.62000000        1.81000000        5.43000000
      5.43000000        0.00000000        5.43000000
      7.24000000        0.00000000        3.62000000
      9.05000000        1.81000000        3.62000000
      7.24000000        1.81000000        5.43000000
      9.05000000        0.00000000        5.43000000
      0.00000000        3.62000000        3.62000000
      1.81000000        5.43000000        3.62000000
      0.00000000        5.43000000        5.43000000
      1.81000000        3.62000000        5.43000000
      3.62000000        3.62000000        3.62000000
      5.43000000        5.43000000        3.62000000
      3.62000000        5.43000000        5.43000000
      5.43000000        3.62000000        5.43000000
      7.24000000        3.62000000        3.62000000
      9.05000000        5.43000000        3.62000000
      7.24000000        5.43000000        5.43000000
      9.05000000        3.62000000        5.43000000
      0.00000000        7.24000000        3.62000000
      1.81000000        9.05000000        3.62000000
      0.00000000        9.05000000        5.43000000
      1.81000000        7.24000000        5.43000000
      3.62000000        7.24000000        3.62000000
      5.43000000        9.05000000        3.62000000
      3.62000000        9.05000000        5.43000000
      5.43000000        7.24000000        5.43000000
      7.24000000        7.24000000        3.62000000
      9.05000000        9.05000000        3.62000000
      7.24000000        9.05000000        5.43000000
      9.05000000        7.24000000        5.43000000
      0.00000000        0.00000000        7.24000000
      1.81000000        1.81000000        7.24000000
      0.00000000        1.81000000        9.05000000
      1.81000000        0.00000000        9.05000000
      3.62000000        0.00000000        7.24000000
      5.43000000        1.81000000        7.24000000
      3.62000000        1.81000000        9.05000000
      5.43000000        0.00000000        9.05000000
      7.24000000        0.00000000        7.24000000
      9.05000000        1.81000000        7.24000000
      7.24000000        1.81000000        9.05000000
      9.05000000        0.00000000        9.05000000
      0.00000000        3.62000000        7.24000000
      1.81000000        5.43000000        7.24000000
      0.00000000        5.43000000        9.05000000
      1.81000000        3.62000000        9.05000000
      3.62000000        3.62000000        7.24000000
      5.43000000        5.43000000        7.24000000
      3.62000000        5.43000000        9.05000000
      5.43000000        3.62000000        9.05000000
      7.24000000        3.62000000        7.24000000
      9.05000000        5.43000000        7.24000000
      7.24000000        5.43000000        9.05000000
      9.05000000        3.62000000        9.05000000
      0.00000000        7.24000000        7.24000000
      1.81000000        9.05000000        7.24000000
      0.00000000        9.05000000        9.05000000
      1.81000000        7.24000000        9.05000000
      3.62000000        7.24000000        7.24000000
      5.43000000        9.05000000        7.24000000
      3.62000000        9.05000000        9.05000000
      5.43000000        7.24000000        9.05000000
      7.24000000        7.24000000        7.24000000
      9.05000000        9.05000000        7.24000000
      7.24000000        9.05000000        9.05000000
      9.05000000        7.24000000        9.05000000
