# Fcc Cu oriented X=[100], Y=[010], Z=[001].
1.000000
     14.48000000        0.00000000        0.00000000
      0.00000000       14.48000000        0.00000000
      0.00000000        0.00000000       20.86000000
 Cu
   192
Cartesian
      0.00000000        0.00000000        0.00000000
      1.81000000        1.81000000        0.00000000
      0.00000000        1.81000000        1.81000000
      1.81000000        0.00000000        1.81000000
      3.62000000        0.00000000        0.00000000
      5.43000000        1.81000000        0.00000000
      3.62000000        1.81000000        1.81000000
      5.43000000        0.00000000        1.81000000
      7.24000000        0.00000000        0.00000000
      9.05000000        1.81000000        0.00000000
      7.24000000        1.81000000        1.81000000
      9.05000000        0.00000000        1.81000000
     10.86000000        0.00000000        0.00000000
     12.67000000        1.81000000        0.00000000
     10.86000000        1.81000000        1.81000000
     12.67000000        0.00000000        1.81000000
      0.00000000        3.62000000        0.00000000
      1.81000000        5.43000000        0.00000000
      0.00000000        5.43000000        1.81000000
      1.81000000        3.62000000        1.81000000
      3.62000000        3.62000000        0.00000000
      5.43000000        5.43000000        0.00000000
      3.62000000        5.43000000        1.81000000
      5.43000000        3.62000000        1.81000000
      7.24000000        3.62000000        0.00000000
      9.05000000        5.43000000        0.00000000
      7.24000000        5.43000000        1.81000000
      9.05000000        3.62000000        1.81000000
     10.86000000        3.62000000        0.00000000
     12.67000000        5.43000000        0.00000000
     10.86000000        5.43000000        1.81000000
     12.67000000        3.62000000        1.81000000
      0.00000000        7.24000000        0.00000000
      1.81000000        9.05000000        0.00000000
      0.00000000        9.05000000        1.81000000
      1.81000000        7.24000000        1.81000000
      3.62000000        7.24000000        0.00000000
      5.43000000        9.05000000        0.00000000
      3.62000000        9.05000000        1.81000000
      5.43000000        7.24000000        1.81000000
      7.24000000        7.24000000        0.00000000
      9.05000000        9.05000000        0.00000000
      7.24000000        9.05000000        1.81000000
      9.05000000        7.24000000        1.81000000
     10.86000000        7.24000000        0.00000000
     12.67000000        9.05000000        0.00000000
     10.86000000        9.05000000        1.81000000
     12.67000000        7.24000000        1.81000000
      0.00000000       10.86000000        0.00000000
      1.81000000       12.67000000        0.00000000
      0.00000000       12.67000000        1.81000000
      1.81000000       10.86000000        1.81000000
      3.62000000       10.86000000        0.00000000
      5.43000000       12.67000000        0.00000000
      3.62000000       12.67000000        1.81000000
      5.43000000       10.86000000        1.81000000
      7.24000000       10.86000000        0.00000000
      9.05000000       12.67000000        0.00000000
      7.24000000       12.67000000        1.81000000
      9.05000000       10.86000000        1.81000000
     10.86000000       10.86000000        0.00000000
     12.67000000       12.67000000        0.00000000
     10.86000000       12.67000000        1.81000000
     12.67000000       10.86000000        1.81000000
      0.00000000        0.00000000        3.62000000
      1.81000000        1.81000000        3.62000000
      0.00000000        1.81000000        5.43000000
      1.81000000        0.00000000        5.43000000
      3.62000000        0.00000000        3.62000000
      5.43000000        1.81000000        3.62000000
      3.62000000        1.81000000        5.43000000
      5.43000000        0.00000000        5.43000000
      7.24000000        0.00000000        3.62000000
      9.05000000        1.81000000        3.62000000
      7.24000000        1.81000000        5.43000000
      9.05000000        0.00000000        5.43000000
     10.86000000        0.00000000        3.62000000
     12.67000000        1.81000000        3.62000000
     10.86000000        1.81000000        5.43000000
     12.67000000        0.00000000        5.43000000
      0.00000000        3.62000000        3.62000000
      1.81000000        5.43000000        3.62000000
      0.00000000        5.43000000        5.43000000
      1.81000000        3.62000000        5.43000000
      3.62000000        3.62000000        3.62000000
      5.43000000        5.43000000        3.62000000
      3.62000000        5.43000000        5.43000000
      5.43000000        3.62000000        5.43000000
      7.24000000        3.62000000        3.62000000
      9.05000000        5.43000000        3.62000000
      7.24000000        5.43000000        5.43000000
      9.05000000        3.62000000        5.43000000
     10.86000000        3.62000000        3.62000000
     12.67000000        5.43000000        3.62000000
     10.86000000        5.43000000        5.43000000
     12.67000000        3.62000000        5.43000000
      0.00000000        7.24000000        3.62000000
      1.81000000        9.05000000        3.62000000
      0.00000000        9.05000000        5.43000000
      1.81000000        7.24000000        5.43000000
      3.62000000        7.24000000        3.62000000
      5.43000000        9.05000000        3.62000000
      3.62000000        9.05000000        5.43000000
      5.43000000        7.24000000        5.43000000
      7.24000000        7.24000000        3.62000000
      9.05000000        9.05000000        3.62000000
      7.24000000        9.05000000        5.43000000
      9.05000000        7.24000000        5.43000000
     10.86000000        7.24000000        3.62000000
     12.67000000        9.05000000        3.62000000
     10.86000000        9.05000000        5.43000000
     12.67000000        7.24000000        5.43000000
      0.00000000       10.86000000        3.62000000
      1.81000000       12.67000000        3.62000000
      0.00000000       12.67000000        5.43000000
      1.81000000       10.86000000        5.43000000
      3.62000000       10.86000000        3.62000000
      5.43000000       12.67000000        3.62000000
      3.62000000       12.67000000        5.43000000
      5.43000000       10.86000000        5.43000000
      7.24000000       10.86000000        3.62000000
      9.05000000       12.67000000        3.62000000
      7.24000000       12.67000000        5.43000000
      9.05000000       10.86000000        5.43000000
     10.86000000       10.86000000        3.62000000
     12.67000000       12.67000000        3.62000000
     10.86000000       12.67000000        5.43000000
     12.67000000       10.86000000        5.43000000
      0.00000000        0.00000000        7.24000000
      1.81000000        1.81000000        7.24000000
      0.00000000        1.81000000        9.05000000
      1.81000000        0.00000000        9.05000000
      3.62000000        0.00000000        7.24000000
      5.43000000        1.81000000        7.24000000
      3.62000000        1.81000000        9.05000000
      5.43000000        0.00000000        9.05000000
      7.24000000        0.00000000        7.24000000
      9.05000000        1.81000000        7.24000000
      7.24000000        1.81000000        9.05000000
      9.05000000        0.00000000        9.05000000
     10.86000000        0.00000000        7.24000000
     12.67000000        1.81000000        7.24000000
     10.86000000        1.81000000        9.05000000
     12.67000000        0.00000000        9.05000000
      0.00000000        3.62000000        7.24000000
      1.81000000        5.43000000        7.24000000
      0.00000000        5.43000000        9.05000000
      1.81000000        3.62000000        9.05000000
      3.62000000        3.62000000        7.24000000
      5.43000000        5.43000000        7.24000000
      3.62000000        5.43000000        9.05000000
      5.43000000        3.62000000        9.05000000
      7.24000000        3.62000000        7.24000000
      9.05000000        5.43000000        7.24000000
      7.24000000        5.43000000        9.05000000
      9.05000000        3.62000000        9.05000000
     10.86000000        3.62000000        7.24000000
     12.67000000        5.43000000        7.24000000
     10.86000000        5.43000000        9.05000000
     12.67000000        3.62000000        9.05000000
      0.00000000        7.24000000        7.24000000
      1.81000000        9.05000000        7.24000000
      0.00000000        9.05000000        9.05000000
      1.81000000        7.24000000        9.05000000
      3.62000000        7.24000000        7.24000000
      5.43000000        9.05000000        7.24000000
      3.62000000        9.05000000        9.05000000
      5.43000000        7.24000000        9.05000000
      7.24000000        7.24000000        7.24000000
      9.05000000        9.05000000        7.24000000
      7.24000000        9.05000000        9.05000000
      9.05000000        7.24000000        9.05000000
     10.86000000        7.24000000        7.24000000
     12.67000000        9.05000000        7.24000000
     10.86000000        9.05000000        9.05000000
     12.67000000        7.24000000        9.05000000
      0.00000000       10.86000000        7.24000000
      1.81000000       12.67000000        7.24000000
      0.00000000       12.67000000        9.05000000
      1.81000000       10.86000000        9.05000000
      3.62000000       10.86000000        7.24000000
      5.43000000       12.67000000        7.24000000
      3.62000000       12.67000000        9.05000000
      5.43000000       10.86000000        9.05000000
      7.24000000       10.86000000        7.24000000
      9.05000000       12.67000000        7.24000000
      7.24000000       12.67000000        9.05000000
      9.05000000       10.86000000        9.05000000
     10.86000000       10.86000000        7.24000000
     12.67000000       12.67000000        7.24000000
     10.86000000       12.67000000        9.05000000
     12.67000000       10.86000000        9.05000000
