Cu O  C 
 1.0000000000000000
    14.4800000000000004    0.0000000000000000    0.0000000000000000
     0.0000000000000000   14.4800000000000004    0.0000000000000000
     0.0000000000000000    0.0000000000000000   20.8599999999999994
 Cu  O   C  
 192   1   1
Cartesian
  0.0000000000000000  0.0000000000000000  0.0000000000000000
  1.8100000000000001  1.8100000000000001  0.0000000000000000
  0.0000000000000000  1.8100000000000001  1.8100000000000001
  1.8100000000000001  0.0000000000000000  1.8100000000000001
  3.6200000000000001  0.0000000000000000  0.0000000000000000
  5.4299999999999997  1.8100000000000001  0.0000000000000000
  3.6200000000000001  1.8100000000000001  1.8100000000000001
  5.4299999999999997  0.0000000000000000  1.8100000000000001
  7.2400000000000002  0.0000000000000000  0.0000000000000000
  9.0500000000000043  1.8100000000000001  0.0000000000000000
  7.2400000000000002  1.8100000000000001  1.8100000000000001
  9.0500000000000043  0.0000000000000000  1.8100000000000001
 10.8599999999999994  0.0000000000000000  0.0000000000000000
 12.6699999999999999  1.8100000000000001  0.0000000000000000
 10.8599999999999994  1.8100000000000001  1.8100000000000001
 12.6699999999999999  0.0000000000000000  1.8100000000000001
  0.0000000000000000  3.6200000000000001  0.0000000000000000
  1.8100000000000001  5.4299999999999997  0.0000000000000000
  0.0000000000000000  5.4299999999999997  1.8100000000000001
  1.8100000000000001  3.6200000000000001  1.8100000000000001
  3.6200000000000001  3.6200000000000001  0.0000000000000000
  5.4299999999999997  5.4299999999999997  0.0000000000000000
  3.6200000000000001  5.4299999999999997  1.8100000000000001
  5.4299999999999997  3.6200000000000001  1.8100000000000001
  7.2400000000000002  3.6200000000000001  0.0000000000000000
  9.0500000000000043  5.4299999999999997  0.0000000000000000
  7.2400000000000002  5.4299999999999997  1.8100000000000001
  9.0500000000000043  3.6200000000000001  1.8100000000000001
 10.8599999999999994  3.6200000000000001  0.0000000000000000
 12.6699999999999999  5.4299999999999997  0.0000000000000000
 10.8599999999999994  5.4299999999999997  1.8100000000000001
 12.6699999999999999  3.6200000000000001  1.8100000000000001
  0.0000000000000000  7.2400000000000002  0.0000000000000000
  1.8100000000000001  9.0500000000000043  0.0000000000000000
  0.0000000000000000  9.0500000000000043  1.8100000000000001
  1.8100000000000001  7.2400000000000002  1.8100000000000001
  3.6200000000000001  7.2400000000000002  0.0000000000000000
  5.4299999999999997  9.0500000000000043  0.0000000000000000
  3.6200000000000001  9.0500000000000043  1.8100000000000001
  5.4299999999999997  7.2400000000000002  1.8100000000000001
  7.2400000000000002  7.2400000000000002  0.0000000000000000
  9.0500000000000043  9.0500000000000043  0.0000000000000000
  7.2400000000000002  9.0500000000000043  1.8100000000000001
  9.0500000000000043  7.2400000000000002  1.8100000000000001
 10.8599999999999994  7.2400000000000002  0.0000000000000000
 12.6699999999999999  9.0500000000000043  0.0000000000000000
 10.8599999999999994  9.0500000000000043  1.8100000000000001
 12.6699999999999999  7.2400000000000002  1.8100000000000001
  0.0000000000000000 10.8599999999999994  0.0000000000000000
  1.8100000000000001 12.6699999999999999  0.0000000000000000
  0.0000000000000000 12.6699999999999999  1.8100000000000001
  1.8100000000000001 10.8599999999999994  1.8100000000000001
  3.6200000000000001 10.8599999999999994  0.0000000000000000
  5.4299999999999997 12.6699999999999999  0.0000000000000000
  3.6200000000000001 12.6699999999999999  1.8100000000000001
  5.4299999999999997 10.8599999999999994  1.8100000000000001
  7.2400000000000002 10.8599999999999994  0.0000000000000000
  9.0500000000000043 12.6699999999999999  0.0000000000000000
  7.2400000000000002 12.6699999999999999  1.8100000000000001
  9.0500000000000043 10.8599999999999994  1.8100000000000001
 10.8599999999999994 10.8599999999999994  0.0000000000000000
 12.6699999999999999 12.6699999999999999  0.0000000000000000
 10.8599999999999994 12.6699999999999999  1.8100000000000001
 12.6699999999999999 10.8599999999999994  1.8100000000000001
  0.0000000000000000  0.0000000000000000  3.6200000000000001
  1.8100000000000001  1.8100000000000001  3.6200000000000001
  0.0000000000000000  1.8100000000000001  5.4299999999999997
  1.8100000000000001  0.0000000000000000  5.4299999999999997
  3.6200000000000001  0.0000000000000000  3.6200000000000001
  5.4299999999999997  1.8100000000000001  3.6200000000000001
  3.6200000000000001  1.8100000000000001  5.4299999999999997
  5.4299999999999997  0.0000000000000000  5.4299999999999997
  7.2400000000000002  0.0000000000000000  3.6200000000000001
  9.0500000000000043  1.8100000000000001  3.6200000000000001
  7.2400000000000002  1.8100000000000001  5.4299999999999997
  9.0500000000000043  0.0000000000000000  5.4299999999999997
 10.8599999999999994  0.0000000000000000  3.6200000000000001
 12.6699999999999999  1.8100000000000001  3.6200000000000001
 10.8599999999999994  1.8100000000000001  5.4299999999999997
 12.6699999999999999  0.0000000000000000  5.4299999999999997
  0.0000000000000000  3.6200000000000001  3.6200000000000001
  1.8100000000000001  5.4299999999999997  3.6200000000000001
  0.0000000000000000  5.4299999999999997  5.4299999999999997
  1.8100000000000001  3.6200000000000001  5.4299999999999997
  3.6200000000000001  3.6200000000000001  3.6200000000000001
  5.4299999999999997  5.4299999999999997  3.6200000000000001
  3.6200000000000001  5.4299999999999997  5.4299999999999997
  5.4299999999999997  3.6200000000000001  5.4299999999999997
  7.2400000000000002  3.6200000000000001  3.6200000000000001
  9.0500000000000043  5.4299999999999997  3.6200000000000001
  7.2400000000000002  5.4299999999999997  5.4299999999999997
  9.0500000000000043  3.6200000000000001  5.4299999999999997
 10.8599999999999994  3.6200000000000001  3.6200000000000001
 12.6699999999999999  5.4299999999999997  3.6200000000000001
 10.8599999999999994  5.4299999999999997  5.4299999999999997
 12.6699999999999999  3.6200000000000001  5.4299999999999997
  0.0000000000000000  7.2400000000000002  3.6200000000000001
  1.8100000000000001  9.0500000000000043  3.6200000000000001
  0.0000000000000000  9.0500000000000043  5.4299999999999997
  1.8100000000000001  7.2400000000000002  5.4299999999999997
  3.6200000000000001  7.2400000000000002  3.6200000000000001
  5.4299999999999997  9.0500000000000043  3.6200000000000001
  3.6200000000000001  9.0500000000000043  5.4299999999999997
  5.4299999999999997  7.2400000000000002  5.4299999999999997
  7.2400000000000002  7.2400000000000002  3.6200000000000001
  9.0500000000000043  9.0500000000000043  3.6200000000000001
  7.2400000000000002  9.0500000000000043  5.4299999999999997
  9.0500000000000043  7.2400000000000002  5.4299999999999997
 10.8599999999999994  7.2400000000000002  3.6200000000000001
 12.6699999999999999  9.0500000000000043  3.6200000000000001
 10.8599999999999994  9.0500000000000043  5.4299999999999997
 12.6699999999999999  7.2400000000000002  5.4299999999999997
  0.0000000000000000 10.8599999999999994  3.6200000000000001
  1.8100000000000001 12.6699999999999999  3.6200000000000001
  0.0000000000000000 12.6699999999999999  5.4299999999999997
  1.8100000000000001 10.8599999999999994  5.4299999999999997
  3.6200000000000001 10.8599999999999994  3.6200000000000001
  5.4299999999999997 12.6699999999999999  3.6200000000000001
  3.6200000000000001 12.6699999999999999  5.4299999999999997
  5.4299999999999997 10.8599999999999994  5.4299999999999997
  7.2400000000000002 10.8599999999999994  3.6200000000000001
  9.0500000000000043 12.6699999999999999  3.6200000000000001
  7.2400000000000002 12.6699999999999999  5.4299999999999997
  9.0500000000000043 10.8599999999999994  5.4299999999999997
 10.8599999999999994 10.8599999999999994  3.6200000000000001
 12.6699999999999999 12.6699999999999999  3.6200000000000001
 10.8599999999999994 12.6699999999999999  5.4299999999999997
 12.6699999999999999 10.8599999999999994  5.4299999999999997
  0.0000000000000000  0.0000000000000000  7.2400000000000002
  1.8100000000000001  1.8100000000000001  7.2400000000000002
  0.0000000000000000  1.8100000000000001  9.0500000000000007
  1.8100000000000001  0.0000000000000000  9.0500000000000007
  3.6200000000000001  0.0000000000000000  7.2400000000000002
  5.4299999999999997  1.8100000000000001  7.2400000000000002
  3.6200000000000001  1.8100000000000001  9.0500000000000007
  5.4299999999999997  0.0000000000000000  9.0500000000000007
  7.2400000000000002  0.0000000000000000  7.2400000000000002
  9.0500000000000043  1.8100000000000001  7.2400000000000002
  7.2400000000000002  1.8100000000000001  9.0500000000000007
  9.0500000000000043  0.0000000000000000  9.0500000000000007
 10.8599999999999994  0.0000000000000000  7.2400000000000002
 12.6699999999999999  1.8100000000000001  7.2400000000000002
 10.8599999999999994  1.8100000000000001  9.0500000000000007
 12.6699999999999999  0.0000000000000000  9.0500000000000007
  0.0000000000000000  3.6200000000000001  7.2400000000000002
  1.8100000000000001  5.4299999999999997  7.2400000000000002
  0.0000000000000000  5.4299999999999997  9.0500000000000007
  1.8100000000000001  3.6200000000000001  9.0500000000000007
  3.6200000000000001  3.6200000000000001  7.2400000000000002
  5.4299999999999997  5.4299999999999997  7.2400000000000002
  3.6200000000000001  5.4299999999999997  9.0500000000000007
  5.4299999999999997  3.6200000000000001  9.0500000000000007
  7.2400000000000002  3.6200000000000001  7.2400000000000002
  9.0500000000000043  5.4299999999999997  7.2400000000000002
  7.2400000000000002  5.4299999999999997  9.0500000000000007
  9.0500000000000043  3.6200000000000001  9.0500000000000007
 10.8599999999999994  3.6200000000000001  7.2400000000000002
 12.6699999999999999  5.4299999999999997  7.2400000000000002
 10.8599999999999994  5.4299999999999997  9.0500000000000007
 12.6699999999999999  3.6200000000000001  9.0500000000000007
  0.0000000000000000  7.2400000000000002  7.2400000000000002
  1.8100000000000001  9.0500000000000043  7.2400000000000002
  0.0000000000000000  9.0500000000000043  9.0500000000000007
  1.8100000000000001  7.2400000000000002  9.0500000000000007
  3.6200000000000001  7.2400000000000002  7.2400000000000002
  5.4299999999999997  9.0500000000000043  7.2400000000000002
  3.6200000000000001  9.0500000000000043  9.0500000000000007
  5.4299999999999997  7.2400000000000002  9.0500000000000007
  7.2400000000000002  7.2400000000000002  7.2400000000000002
  9.0500000000000043  9.0500000000000043  7.2400000000000002
  7.2400000000000002  9.0500000000000043  9.0500000000000007
  9.0500000000000043  7.2400000000000002  9.0500000000000007
 10.8599999999999994  7.2400000000000002  7.2400000000000002
 12.6699999999999999  9.0500000000000043  7.2400000000000002
 10.8599999999999994  9.0500000000000043  9.0500000000000007
 12.6699999999999999  7.2400000000000002  9.0500000000000007
  0.0000000000000000 10.8599999999999994  7.2400000000000002
  1.8100000000000001 12.6699999999999999  7.2400000000000002
  0.0000000000000000 12.6699999999999999  9.0500000000000007
  1.8100000000000001 10.8599999999999994  9.0500000000000007
  3.6200000000000001 10.8599999999999994  7.2400000000000002
  5.4299999999999997 12.6699999999999999  7.2400000000000002
  3.6200000000000001 12.6699999999999999  9.0500000000000007
  5.4299999999999997 10.8599999999999994  9.0500000000000007
  7.2400000000000002 10.8599999999999994  7.2400000000000002
  9.0500000000000043 12.6699999999999999  7.2400000000000002
  7.2400000000000002 12.6699999999999999  9.0500000000000007
  9.0500000000000043 10.8599999999999994  9.0500000000000007
 10.8599999999999994 10.8599999999999994  7.2400000000000002
 12.6699999999999999 12.6699999999999999  7.2400000000000002
 10.8599999999999994 12.6699999999999999  9.0500000000000007
 12.6699999999999999 10.8599999999999994  9.0500000000000007
  0.0000000000000000  1.8100000000000001 12.2003400000000024
  0.0000000000000000  1.8100000000000001 11.0499999999999989
