Cu
 1.0000000000000000
     7.6579664402503100    0.0000000000000000    0.0000000000000000
     0.0000000000000000    7.6579664402503100    0.0000000000000000
     0.0000000000000000    0.0000000000000000   23.6099999999999994
 Cu 
  27
Cartesian
  0.0000000000000000  0.0000000000000000 10.0000000000000000
  2.5526554800834367  0.0000000000000000 10.0000000000000000
  5.1053109601668734  0.0000000000000000 10.0000000000000000
  0.0000000000000000  2.5526554800834367 10.0000000000000000
  2.5526554800834367  2.5526554800834367 10.0000000000000000
  5.1053109601668734  2.5526554800834367 10.0000000000000000
  0.0000000000000000  5.1053109601668734 10.0000000000000000
  2.5526554800834367  5.1053109601668734 10.0000000000000000
  5.1053109601668734  5.1053109601668734 10.0000000000000000
  1.2763277400417183  1.2763277400417183 11.8049999999999997
  3.8289832201251550  1.2763277400417183 11.8049999999999997
  6.3816387002085921  1.2763277400417183 11.8049999999999997
  1.2763277400417183  3.8289832201251550 11.8049999999999997
  3.8289832201251550  3.8289832201251550 11.8049999999999997
  6.3816387002085921  3.8289832201251550 11.8049999999999997
  1.2763277400417183  6.3816387002085921 11.8049999999999997
  3.8289832201251550  6.3816387002085921 11.8049999999999997
  6.3816387002085921  6.3816387002085921 11.8049999999999997
  0.0000000000000000  0.0000000000000000 13.6099999999999994
  2.5526554800834367  0.0000000000000000 13.6099999999999994
  5.1053109601668734  0.0000000000000000 13.6099999999999994
  0.0000000000000000  2.5526554800834367 13.6099999999999994
  2.5526554800834367  2.5526554800834367 13.6099999999999994
  5.1053109601668734  2.5526554800834367 13.6099999999999994
  0.0000000000000000  5.1053109601668734 13.6099999999999994
  2.5526554800834367  5.1053109601668734 13.6099999999999994
  5.1053109601668734  5.1053109601668734 13.6099999999999994
